c turning on binary mode checking
c parsing input formula with 202048 variables and 780985 clauses
c finished parsing, read 2176914 bytes from proof file
c detected empty clause; start verification via backward checking
c 775 of 780985 clauses in core                            
c 244 of 86715 lemmas in core using 5893 resolution steps
c 0 RAT lemmas in core; 14 redundant literals in core lemmas
s VERIFIED
c verification time: 1.069 seconds
